NAME: random_60_0
TYPE: TSP
COMMENT: random_60_0
DIMENSION: 60
EDGE_WEIGHT_TYPE: EUC_2D
NODE_COORD_SECTION
1 136 47
2 130 268
3 45 336
4 200 431
5 100 91
6 124 3
7 359 307
8 71 303
9 268 279
10 233 467
11 404 361
12 383 315
13 434 169
14 23 26
15 106 485
16 272 375
17 340 253
18 454 89
19 58 152
20 444 450
21 68 296
22 396 365
23 443 399
24 353 424
25 51 188
26 37 63
27 28 44
28 420 157
29 237 322
30 358 291
31 305 305
32 490 419
33 45 493
34 197 487
35 71 120
36 451 433
37 311 499
38 0 67
39 309 221
40 227 168
41 403 251
42 102 363
43 293 88
44 46 286
45 129 131
46 392 94
47 441 29
48 12 181
49 128 251
50 46 155
51 498 309
52 225 30
53 5 365
54 380 339
55 21 133
56 434 92
57 276 278
58 429 494
59 114 196
60 130 452
